
Log started (V12.10.0.0) Fri Apr  2 08:04:07 2021


Problem 'asset.lp' read.
Read time = 0.00 sec. (0.16 ticks)
New value for default parallel thread count: 1
New value for time limit in seconds: 300
Version identifier: 12.10.0.0 | 2019-11-26 | 843d4de
CPXPARAM_Threads                                 1
CPXPARAM_TimeLimit                               300
Found incumbent of value 0.000000 after 0.00 sec. (0.05 ticks)
Tried aggregator 3 times.
MIP Presolve eliminated 264 rows and 87 columns.
MIP Presolve modified 1273 coefficients.
Aggregator did 500 substitutions.
Reduced MIP has 723 rows, 856 columns, and 3394 nonzeros.
Reduced MIP has 682 binaries, 138 generals, 0 SOSs, and 0 indicators.
Presolve time = 0.01 sec. (7.33 ticks)
Probing fixed 65 vars, tightened 14 bounds.
Probing time = 0.01 sec. (3.49 ticks)
Cover probing fixed 0 vars, tightened 48 bounds.
Tried aggregator 2 times.
MIP Presolve eliminated 129 rows and 107 columns.
MIP Presolve modified 405 coefficients.
Aggregator did 7 substitutions.
Reduced MIP has 587 rows, 742 columns, and 2781 nonzeros.
Reduced MIP has 586 binaries, 124 generals, 0 SOSs, and 0 indicators.
Presolve time = 0.01 sec. (5.60 ticks)
Probing time = 0.00 sec. (2.55 ticks)
Cover probing fixed 0 vars, tightened 2 bounds.
Tried aggregator 1 time.
Detecting symmetries...
MIP Presolve eliminated 1 rows and 1 columns.
MIP Presolve modified 72 coefficients.
Reduced MIP has 586 rows, 741 columns, and 2777 nonzeros.
Reduced MIP has 585 binaries, 124 generals, 0 SOSs, and 0 indicators.
Presolve time = 0.00 sec. (1.87 ticks)
Probing time = 0.00 sec. (2.57 ticks)
Clique table members: 2188.
MIP emphasis: balance optimality and feasibility.
MIP search method: dynamic search.
Parallel mode: none, using 1 thread.
Root relaxation solution time = 0.01 sec. (7.76 ticks)

        Nodes                                         Cuts/
   Node  Left     Objective  IInf  Best Integer    Best Bound    ItCnt     Gap

*     0+    0                            0.0000      515.0000              --- 
      0     0      361.2635   136        0.0000      361.2635      576     --- 
      0     0      344.9763   136        0.0000     Cuts: 215      764     --- 
      0     0      332.4954   136        0.0000     Cuts: 174      952     --- 
      0     0      330.8650   136        0.0000     Cuts: 148     1138     --- 
      0     0      330.3496   136        0.0000     Cuts: 127     1233     --- 
      0     0      329.3592   136        0.0000     Cuts: 106     1298     --- 
Detecting symmetries...
      0     0      327.9155   136        0.0000     Cuts: 121     1381     --- 
      0     0      326.7083   136        0.0000      Cuts: 94     1451     --- 
      0     0      326.0210   136        0.0000     Cuts: 114     1525     --- 
      0     0      325.7863   136        0.0000     Cuts: 128     1594     --- 
      0     0      325.6631   136        0.0000     Cuts: 178     1689     --- 
      0     0      324.9880   136        0.0000      Cuts: 71     1796     --- 
      0     0      324.3079   136        0.0000     Cuts: 171     1876     --- 
      0     0      323.6751   136        0.0000     Cuts: 120     1931     --- 
      0     0      323.1254   136        0.0000     Cuts: 102     2019     --- 
      0     0      322.9322   136        0.0000      Cuts: 95     2091     --- 
      0     0      322.7506   136        0.0000     Cuts: 100     2180     --- 
      0     0      322.6224   136        0.0000      Cuts: 71     2215     --- 
      0     0      322.5194   136        0.0000      Cuts: 76     2282     --- 
      0     0      322.3396   136        0.0000     Cuts: 107     2362     --- 
      0     0      322.1206   136        0.0000      Cuts: 98     2476     --- 
      0     0      321.6259   136        0.0000      Cuts: 99     2571     --- 
*     0+    0                           85.0000      321.6259           278.38%
      0     0        cutoff             85.0000      321.6259     2571  278.38%
      0     0      321.4718   136       85.0000     Cuts: 137     2647  278.20%
      0     0      321.1291   136       85.0000      Cuts: 72     2730  277.80%
      0     0      321.0974   136       85.0000     Cuts: 100     2788  277.76%
      0     0      321.0405   136       85.0000       Cuts: 6     2819  277.69%
*     0+    0                          110.0000      321.0405           191.85%
*     0+    0                          140.0000      321.0405           129.31%
*     0+    0                          160.0000      321.0405           100.65%
      0     0        cutoff            160.0000      321.0405     2819  100.65%
Detecting symmetries...
      0     2      321.0405   170      160.0000      321.0405     2819  100.65%
Elapsed time = 0.39 sec. (371.81 ticks, tree = 0.01 MB, solutions = 4)
*    20+   20                          220.0000      320.5439            45.70%
*    76    68      integral     0      225.0000      320.5439     5093   42.46%
    169   135      315.4994   181      225.0000      320.2074     7833   42.31%
*   176+  128                          230.0000      320.2074            39.22%
*   176+  111                          240.0000      320.2074            33.42%
*   237   128      integral     0      255.0000      320.1975     9319   25.57%
    305   180      286.1584   102      255.0000      319.8192    12890   25.42%
    505   346      272.1725    92      255.0000      317.4408    18916   24.49%
    684   477      277.2692   117      255.0000      315.1811    24456   23.60%
    880   621      261.6463    89      255.0000      314.7559    30216   23.43%

Performing restart 1

Repeating presolve.
Tried aggregator 2 times.
MIP Presolve modified 566 coefficients.
Aggregator did 7 substitutions.
Reduced MIP has 579 rows, 734 columns, and 2353 nonzeros.
Reduced MIP has 578 binaries, 124 generals, 0 SOSs, and 0 indicators.
Presolve time = 0.00 sec. (3.21 ticks)
Tried aggregator 1 time.
Reduced MIP has 579 rows, 734 columns, and 2353 nonzeros.
Reduced MIP has 578 binaries, 124 generals, 0 SOSs, and 0 indicators.
Presolve time = 0.00 sec. (1.77 ticks)
Represolve time = 0.02 sec. (16.26 ticks)
   1002     0      313.9781   201      255.0000     Cuts: 205    35947   23.13%
   1002     0      307.5570   201      255.0000     Cuts: 165    36064   20.61%
   1002     0      306.7499   201      255.0000     Cuts: 122    36188   20.29%
   1002     0      306.4202   201      255.0000     Cuts: 133    36274   20.16%
   1002     0      305.4547   201      255.0000     Cuts: 103    36346   19.79%
   1002     0      305.3315   201      255.0000      Cuts: 87    36402   19.74%
   1002     0      305.1981   201      255.0000      Cuts: 94    36521   19.69%
   1002     0      304.8398   201      255.0000      Cuts: 86    36743   19.55%
   1002     0      304.6477   201      255.0000     Cuts: 132    36832   19.47%
   1002     0      303.8454   201      255.0000     Cuts: 100    37047   19.16%
   1002     0      303.5741   201      255.0000     Cuts: 113    37140   19.05%
   1002     0      303.4633   201      255.0000      Cuts: 68    37197   19.01%
   1002     0      303.1120   201      255.0000      Cuts: 52    37246   18.87%
   1002     0      303.0762   201      255.0000      Cuts: 48    37277   18.85%
   1002     0      303.0735   201      255.0000      Cuts: 35    37311   18.85%
   1002     0      303.0167   201      255.0000      Cuts: 51    37350   18.83%
   1002     0      302.9813   201      255.0000      Cuts: 40    37376   18.82%
   1002     0      302.9084   201      255.0000      Cuts: 53    37426   18.79%
   1002     0      302.7225   201      255.0000      Cuts: 57    37491   18.71%
   1002     0      302.1637   201      255.0000      Cuts: 73    37555   18.50%
   1002     0      301.9653   201      255.0000      Cuts: 78    37639   18.42%
   1002     0      301.9326   201      255.0000      Cuts: 60    37686   18.40%
   1002     0      301.8426   201      255.0000      Cuts: 51    37732   18.37%
   1002     0      301.7973   201      255.0000      Cuts: 71    37775   18.35%
   1002     0      301.3963   201      255.0000      Cuts: 43    37859   18.19%
   1002     0      301.2934   201      255.0000      Cuts: 65    37918   18.15%
   1002     0      300.9400   201      255.0000      Cuts: 64    37982   18.02%
   1002     0      300.7163   201      255.0000      Cuts: 43    38029   17.93%
   1002     0      300.5012   201      255.0000      Cuts: 38    38102   17.84%
   1002     0      300.1306   201      255.0000      Cuts: 64    38173   17.70%
   1002     0      300.0371   201      255.0000      Cuts: 61    38234   17.66%
   1002     0      300.0266   201      255.0000      Cuts: 34    38258   17.66%
   1002     0      299.9891   201      255.0000       Cuts: 9    38292   17.64%
   1002     2      299.9891   180      255.0000      299.9844    38292   17.64%
   1007     7      295.4533   125      255.0000      296.6796    39008   16.34%
*  1032    22      integral     0      260.0000      296.1079    39859   13.89%
   1033    22      295.0003   152      260.0000      295.4533    40089   13.64%
   1071    55      274.6386    82      260.0000      295.0131    42192   13.47%
   1384   239      276.4381    96      260.0000      284.5911    57016    9.46%
Elapsed time = 4.74 sec. (5178.30 ticks, tree = 0.16 MB, solutions = 10)
   1689   379      271.4985   103      260.0000      281.2846    70216    8.19%
   2068   467        cutoff            260.0000      277.5000    85707    6.73%
   2416   456      271.8750    72      260.0000      275.0000   100390    5.77%
   2750   406        cutoff            260.0000      272.8409   114117    4.94%

GUB cover cuts applied:  11
Clique cuts applied:  52
Cover cuts applied:  15
Implied bound cuts applied:  77
Flow cuts applied:  7
Mixed integer rounding cuts applied:  72
Zero-half cuts applied:  64
Lift and project cuts applied:  16
Gomory fractional cuts applied:  4

Root node processing (before b&c):
  Real time             =    0.39 sec. (371.92 ticks)
Sequential b&c:
  Real time             =    8.61 sec. (9581.65 ticks)
                          ------------
Total (root+branch&cut) =    9.01 sec. (9953.58 ticks)

Solution pool: 11 solutions saved.

MIP - Integer optimal solution:  Objective =  2.6000000000e+02
Solution time =    9.01 sec.  Iterations = 128298  Nodes = 3314
Deterministic time = 9953.58 ticks  (1105.16 ticks/sec)


Incumbent solution
Variable Name           Solution Value
F                           260.000000
y28                           1.000000
y224                          1.000000
y8                            1.000000
y72                           1.000000
y9                            1.000000
y168                          1.000000
y197                          1.000000
y176                          1.000000
y80                           1.000000
y217                          1.000000
y221                          1.000000
y138                          1.000000
y61                           1.000000
y144                          1.000000
y231                          1.000000
y139                          1.000000
y216                          1.000000
x207x61x1                     1.000000
x207x216x1                    1.000000
x129x176x1                    1.000000
x205x176x1                    1.000000
x205x231x1                    1.000000
x228x80x1                     2.000000
x262x9x1                      1.000000
x261x28x1                     1.000000
x206x224x2                    1.000000
x84x221x2                     1.000000
x84x61x2                      1.000000
x77x221x2                     1.000000
x77x144x2                     1.000000
x22x139x2                     1.000000
x196x144x2                    1.000000
x259x224x2                    1.000000
x259x168x2                    1.000000
x196x139x3                    1.000000
x100x72x3                     1.000000
x100x168x3                    1.000000
x241x8x3                      2.000000
x262x72x3                     1.000000
x261x28x3                     1.000000
x28x9x1                       1.000000
x28x197x3                     1.000000
x224x0x2                      1.000000
x224x216x2                    1.000000
x8x197x3                      1.000000
x8x138x3                      1.000000
x72x217x3                     2.000000
x9x0x1                        2.000000
x168x231x2                    1.000000
x168x138x3                    1.000000
x197x0x3                      2.000000
x176x0x1                      2.000000
x80x0x1                       2.000000
x217x0x3                      2.000000
x221x0x2                      2.000000
x138x0x3                      2.000000
x61x0x1                       1.000000
x61x0x2                       1.000000
x144x0x2                      2.000000
x231x0x1                      1.000000
x231x0x2                      1.000000
x139x0x2                      1.000000
x139x0x3                      1.000000
x216x0x1                      1.000000
x216x0x2                      1.000000
s206                          6.830254
s120                          7.220000
s17                           7.300000
s15                           7.510000
s224                          8.220835
z206z224z2                    1.000000
s74                           7.570000
s168                          7.749766
s246                          7.695013
s213                          7.780000
s171                          7.806966
s54                           9.030000
s221                          9.130000
s61                           9.210000
s75                           9.260000
s179                          9.270000
s144                          9.400000
z206z144z2                    1.000000
s231                          9.420000
s139                          9.490000
s216                          9.490000
s84                           7.269702
z84z221z2                     1.000000
z84z61z2                      1.000000
z84z179z2                     1.000000
z84z144z2                     1.000000
s77                           7.549807
z77z221z2                     1.000000
z77z144z2                     1.000000
s207                          7.541865
s176                          8.868851
z207z176z1                    1.000000
z207z61z1                     1.000000
z207z216z1                    1.000000
s129                          7.636057
z129z176z1                    1.000000
s205                          7.568974
s115                          7.780000
z205z176z1                    1.000000
s80                           9.050000
z205z80z1                     1.000000
s189                          9.110000
z205z189z1                    1.000000
z205z231z1                    1.000000
s22                           7.837333
z22z139z2                     1.000000
s228                          7.598164
z228z176z1                    1.000000
z228z80z1                     1.000000
z228z189z1                    1.000000
s196                          8.075021
z196z144z2                    1.000000
z196z139z3                    1.000000
s100                          5.989420
s5                            7.639344
s143                          7.200000
s133                          7.220000
s39                           7.579095
s150                          7.330000
s2                            7.380000
s28                           7.537402
s233                          7.390000
s8                            7.540000
s72                           7.620000
z100z72z3                     1.000000
z100z168z3                    1.000000
s197                          8.770000
s41                           8.950000
z100z41z3                     1.000000
s175                          9.000000
z100z175z3                    1.000000
s130                          9.070000
z100z130z3                    1.000000
s217                          9.110000
z100z217z3                    1.000000
s138                          9.200000
z100z138z3                    1.000000
s241                          5.240000
z241z133z3                    1.000000
z241z39z3                     1.000000
z241z2z3                      1.000000
z241z8z3                      1.000000
z241z72z3                     1.000000
z241z197z3                    1.000000
z241z41z3                     1.000000
z241z175z3                    1.000000
z241z130z3                    1.000000
z241z217z3                    1.000000
z241z138z3                    1.000000
s262                          5.988540
s112                          7.310000
z262z112z1                    1.000000
s247                          7.330000
s222                          7.440000
s257                          7.440000
s218                          7.580000
z262z72z3                     1.000000
s9                            8.660000
z262z9z1                      1.000000
s128                          8.730000
z262z41z3                     1.000000
z262z176z1                    1.000000
z262z175z3                    1.000000
z262z80z1                     1.000000
z262z130z3                    1.000000
z262z189z1                    1.000000
z262z217z3                    1.000000
z262z138z3                    1.000000
s261                          5.936340
z261z112z1                    1.000000
z261z2z3                      1.000000
z261z28z1                     1.000000
z261z28z3                     1.000000
z261z72z3                     1.000000
z261z9z1                      1.000000
z261z128z1                    1.000000
z261z197z3                    1.000000
z261z41z3                     1.000000
z261z176z1                    1.000000
z261z175z3                    1.000000
z261z80z1                     1.000000
z261z130z3                    1.000000
z261z189z1                    1.000000
z261z217z3                    1.000000
z261z138z3                    1.000000
s259                          5.940000
z259z224z2                    1.000000
z259z168z2                    1.000000
z259z246z2                    1.000000
z259z221z2                    1.000000
z259z179z2                    1.000000
z259z144z2                    1.000000
z120z144z2                    1.000000
z133z130z3                    1.000000
z133z217z3                    1.000000
z133z138z3                    1.000000
z39z197z3                     1.000000
z39z41z3                      1.000000
z39z130z3                     1.000000
z39z217z3                     1.000000
z39z138z3                     1.000000
z112z189z1                    1.000000
z247z189z1                    1.000000
z2z175z3                      1.000000
z28z9z1                       1.000000
z28z197z3                     1.000000
z222z189z1                    1.000000
z257z189z1                    1.000000
z224z216z2                    1.000000
z8z197z3                      1.000000
z8z130z3                      1.000000
z8z217z3                      1.000000
z8z138z3                      1.000000
z218z189z1                    1.000000
z72z217z3                     1.000000
z168z138z3                    1.000000
z168z231z2                    1.000000
z246z221z2                    1.000000
z246z144z2                    1.000000
z213z144z2                    1.000000
All other variables in the range 1-1446 are 0.
